1078
0 31 65 165 271 
0 160 224 305 397 
0 93 105 163 235 
52 147 333 418 473 
0 129 206 295 314 
65 314 473 593 674 
0 202 368 514 646 
105 455 539 591 674 
108 326 412 565 668 
218 437 514 593 733 
37 270 609 704 780 
704 796 806 943 952 
176 343 496 587 765 
753 796 898 926 987 
811 898 953 992 1037 
